40
1 0 5
2 1 5
3 0 4
4 0 13
4 1 11
5 0 2
5 1 1
5 2 1
5 3 13
5 4 13
6 1 9
6 4 13
6 5 9
7 0 7
7 3 11
7 4 3
7 5 7
7 6 5
8 0 1
8 1 3
8 2 7
8 3 8
8 6 4
8 7 6
9 0 11
9 1 1
9 4 8
9 7 6
10 0 4
10 1 11
10 2 6
10 3 11
10 4 3
10 5 10
10 8 5
10 9 6
11 1 10
11 2 9
11 3 9
11 4 11
11 5 7
11 6 12
11 7 6
11 8 3
12 0 13
12 1 11
12 3 4
12 9 11
12 11 9
13 1 4
13 3 12
13 7 1
13 9 4
13 12 12
14 1 13
14 5 1
14 7 6
14 8 2
14 9 12
14 10 6
15 0 12
15 1 4
15 5 10
15 6 8
15 8 8
15 11 5
15 12 9
16 3 10
16 4 4
16 5 12
16 6 12
16 7 1
16 12 8
17 0 4
17 1 6
17 2 6
17 3 5
17 4 4
17 5 10
17 6 7
17 7 6
17 10 13
17 13 13
17 16 8
18 1 9
18 4 2
18 5 6
18 6 9
18 7 8
18 10 8
18 11 3
18 12 1
18 13 3
18 16 2
19 0 4
19 2 9
19 4 13
19 6 13
19 9 6
19 13 4
19 14 11
19 16 2
19 17 10
20 2 9
20 3 7
20 6 1
20 7 10
20 8 11
20 12 12
20 15 7
20 17 9
21 1 13
21 4 3
21 6 4
21 7 6
21 10 1
21 12 3
21 13 11
21 14 7
21 15 1
21 16 3
22 0 13
22 1 3
22 3 13
22 5 7
22 6 7
22 7 11
22 10 2
22 13 5
22 17 5
22 18 13
22 19 4
22 20 6
22 21 7
23 3 10
23 6 13
23 9 5
23 11 12
23 12 11
23 14 3
23 18 9
23 20 12
24 0 4
24 1 9
24 5 10
24 7 9
24 10 13
24 13 6
24 17 13
24 19 1
24 23 10
25 0 7
25 1 12
25 3 3
25 5 8
25 6 2
25 7 9
25 8 3
25 9 7
25 13 11
25 14 9
25 18 9
25 19 6
25 20 11
26 0 6
26 3 3
26 4 10
26 6 4
26 7 13
26 9 5
26 10 1
26 14 10
26 16 1
26 22 4
26 23 1
26 24 2
26 25 13
27 2 3
27 4 8
27 8 9
27 12 12
27 14 5
27 15 5
27 17 5
27 18 13
27 21 10
27 23 5
28 0 12
28 1 12
28 2 4
28 3 5
28 4 10
28 5 7
28 6 5
28 12 6
28 14 7
28 16 2
28 17 2
28 19 7
28 20 10
28 22 10
28 26 8
29 3 11
29 4 7
29 6 2
29 8 4
29 9 10
29 10 8
29 18 10
30 4 7
30 6 11
30 7 2
30 8 1
30 11 11
30 12 5
30 13 1
30 17 10
30 18 1
30 20 8
30 21 12
30 24 4
30 25 10
31 7 7
31 8 10
31 9 8
31 11 8
31 13 1
31 14 3
31 15 4
31 18 4
31 19 8
31 27 3
31 28 5
31 29 1
32 0 3
32 1 7
32 2 8
32 4 4
32 5 10
32 7 9
32 9 12
32 10 10
32 11 4
32 12 4
32 13 11
32 15 5
32 16 8
32 17 12
32 18 2
32 19 6
32 21 6
32 22 1
32 24 12
32 26 5
32 29 11
33 0 9
33 2 10
33 3 10
33 5 4
33 6 9
33 9 6
33 10 5
33 11 9
33 12 3
33 14 12
33 22 1
33 23 5
33 27 8
33 29 9
33 32 2
34 2 4
34 3 7
34 5 4
34 13 7
34 14 9
34 15 8
34 17 7
34 18 4
34 19 8
34 20 11
34 24 4
34 27 1
34 28 10
34 29 9
34 30 5
34 32 10
35 3 1
35 8 7
35 9 9
35 12 11
35 13 2
35 14 7
35 15 10
35 17 4
35 19 8
35 20 12
35 23 2
35 26 1
35 27 1
35 30 2
35 31 1
36 1 1
36 3 2
36 4 1
36 9 10
36 10 4
36 13 6
36 17 13
36 19 4
36 20 3
36 22 10
36 23 7
36 24 12
36 25 1
36 27 12
36 28 8
36 30 5
36 33 5
37 1 7
37 3 13
37 5 1
37 6 1
37 7 13
37 8 12
37 9 3
37 10 11
37 11 7
37 12 1
37 13 7
37 14 13
37 16 13
37 18 8
37 19 4
37 20 7
37 21 4
37 24 1
37 30 12
37 35 9
37 36 11
38 3 9
38 6 10
38 7 6
38 10 3
38 12 8
38 16 1
38 18 7
38 24 11
38 25 5
38 29 12
38 30 12
38 31 8
38 32 12
38 33 13
38 34 13
38 36 2
38 37 3
39 0 10
39 1 3
39 2 9
39 4 8
39 5 12
39 7 9
39 8 10
39 11 9
39 17 1
39 18 7
39 19 1
39 20 8
39 21 6
39 22 7
39 23 6
39 24 9
39 25 2
39 27 9
39 28 9
39 29 1
39 30 13
39 31 8
39 32 3
39 33 3
39 35 1
39 36 8
39 37 11
